c *********************************
c * Circuit generated by BenCGen
c *
c * CarrySkipAdder_24_24_24_InOut_G4T
c *
c * Ports with 1 gate(s): 8
c * Ports with 2 gate(s): 133
c * Ports with 4 gate(s): 6
c * Total gates: 147
c *********************************
p cnf 195 493
1 75 0
-1 -75 0
1 -74 0
75 -74 0
-1 -75 74 0
1 25 -78 0
-1 25 78 0
1 -25 78 0
-1 -25 -78 0
78 74 -49 0
-78 74 49 0
78 -74 49 0
-78 -74 -49 0
74 -79 0
78 -79 0
-74 -78 79 0
25 -80 0
1 -80 0
-25 -1 80 0
-79 77 0
-80 77 0
79 80 -77 0
2 26 -82 0
-2 26 82 0
2 -26 82 0
-2 -26 -82 0
82 77 -50 0
-82 77 50 0
82 -77 50 0
-82 -77 -50 0
77 -83 0
82 -83 0
-77 -82 83 0
26 -84 0
2 -84 0
-26 -2 84 0
-83 81 0
-84 81 0
83 84 -81 0
3 27 -86 0
-3 27 86 0
3 -27 86 0
-3 -27 -86 0
86 81 -51 0
-86 81 51 0
86 -81 51 0
-86 -81 -51 0
81 -87 0
86 -87 0
-81 -86 87 0
27 -88 0
3 -88 0
-27 -3 88 0
-87 85 0
-88 85 0
87 88 -85 0
4 28 -89 0
-4 28 89 0
4 -28 89 0
-4 -28 -89 0
89 85 -52 0
-89 85 52 0
89 -85 52 0
-89 -85 -52 0
85 -90 0
89 -90 0
-85 -89 90 0
28 -91 0
4 -91 0
-28 -4 91 0
-90 76 0
-91 76 0
90 91 -76 0
78 -92 0
82 -92 0
86 -92 0
89 -92 0
-78 -82 -86 -89 92 0
91 -93 0
-91 93 0
74 -94 0
92 -94 0
-74 -92 94 0
-94 95 0
-76 95 0
94 76 -95 0
5 29 -98 0
-5 29 98 0
5 -29 98 0
-5 -29 -98 0
98 95 -53 0
-98 95 53 0
98 -95 53 0
-98 -95 -53 0
95 -99 0
98 -99 0
-95 -98 99 0
29 -100 0
5 -100 0
-29 -5 100 0
-99 97 0
-100 97 0
99 100 -97 0
6 30 -102 0
-6 30 102 0
6 -30 102 0
-6 -30 -102 0
102 97 -54 0
-102 97 54 0
102 -97 54 0
-102 -97 -54 0
97 -103 0
102 -103 0
-97 -102 103 0
30 -104 0
6 -104 0
-30 -6 104 0
-103 101 0
-104 101 0
103 104 -101 0
7 31 -106 0
-7 31 106 0
7 -31 106 0
-7 -31 -106 0
106 101 -55 0
-106 101 55 0
106 -101 55 0
-106 -101 -55 0
101 -107 0
106 -107 0
-101 -106 107 0
31 -108 0
7 -108 0
-31 -7 108 0
-107 105 0
-108 105 0
107 108 -105 0
8 32 -109 0
-8 32 109 0
8 -32 109 0
-8 -32 -109 0
109 105 -56 0
-109 105 56 0
109 -105 56 0
-109 -105 -56 0
105 -110 0
109 -110 0
-105 -109 110 0
32 -111 0
8 -111 0
-32 -8 111 0
-110 96 0
-111 96 0
110 111 -96 0
98 -112 0
102 -112 0
106 -112 0
109 -112 0
-98 -102 -106 -109 112 0
111 -113 0
-111 113 0
95 -114 0
112 -114 0
-95 -112 114 0
-114 115 0
-96 115 0
114 96 -115 0
9 33 -118 0
-9 33 118 0
9 -33 118 0
-9 -33 -118 0
118 115 -57 0
-118 115 57 0
118 -115 57 0
-118 -115 -57 0
115 -119 0
118 -119 0
-115 -118 119 0
33 -120 0
9 -120 0
-33 -9 120 0
-119 117 0
-120 117 0
119 120 -117 0
10 34 -122 0
-10 34 122 0
10 -34 122 0
-10 -34 -122 0
122 117 -58 0
-122 117 58 0
122 -117 58 0
-122 -117 -58 0
117 -123 0
122 -123 0
-117 -122 123 0
34 -124 0
10 -124 0
-34 -10 124 0
-123 121 0
-124 121 0
123 124 -121 0
11 35 -126 0
-11 35 126 0
11 -35 126 0
-11 -35 -126 0
126 121 -59 0
-126 121 59 0
126 -121 59 0
-126 -121 -59 0
121 -127 0
126 -127 0
-121 -126 127 0
35 -128 0
11 -128 0
-35 -11 128 0
-127 125 0
-128 125 0
127 128 -125 0
12 36 -129 0
-12 36 129 0
12 -36 129 0
-12 -36 -129 0
129 125 -60 0
-129 125 60 0
129 -125 60 0
-129 -125 -60 0
125 -130 0
129 -130 0
-125 -129 130 0
36 -131 0
12 -131 0
-36 -12 131 0
-130 116 0
-131 116 0
130 131 -116 0
118 -132 0
122 -132 0
126 -132 0
129 -132 0
-118 -122 -126 -129 132 0
131 -133 0
-131 133 0
115 -134 0
132 -134 0
-115 -132 134 0
-134 135 0
-116 135 0
134 116 -135 0
13 37 -138 0
-13 37 138 0
13 -37 138 0
-13 -37 -138 0
138 135 -61 0
-138 135 61 0
138 -135 61 0
-138 -135 -61 0
135 -139 0
138 -139 0
-135 -138 139 0
37 -140 0
13 -140 0
-37 -13 140 0
-139 137 0
-140 137 0
139 140 -137 0
14 38 -142 0
-14 38 142 0
14 -38 142 0
-14 -38 -142 0
142 137 -62 0
-142 137 62 0
142 -137 62 0
-142 -137 -62 0
137 -143 0
142 -143 0
-137 -142 143 0
38 -144 0
14 -144 0
-38 -14 144 0
-143 141 0
-144 141 0
143 144 -141 0
15 39 -146 0
-15 39 146 0
15 -39 146 0
-15 -39 -146 0
146 141 -63 0
-146 141 63 0
146 -141 63 0
-146 -141 -63 0
141 -147 0
146 -147 0
-141 -146 147 0
39 -148 0
15 -148 0
-39 -15 148 0
-147 145 0
-148 145 0
147 148 -145 0
16 40 -149 0
-16 40 149 0
16 -40 149 0
-16 -40 -149 0
149 145 -64 0
-149 145 64 0
149 -145 64 0
-149 -145 -64 0
145 -150 0
149 -150 0
-145 -149 150 0
40 -151 0
16 -151 0
-40 -16 151 0
-150 136 0
-151 136 0
150 151 -136 0
138 -152 0
142 -152 0
146 -152 0
149 -152 0
-138 -142 -146 -149 152 0
151 -153 0
-151 153 0
135 -154 0
152 -154 0
-135 -152 154 0
-154 155 0
-136 155 0
154 136 -155 0
17 41 -158 0
-17 41 158 0
17 -41 158 0
-17 -41 -158 0
158 155 -65 0
-158 155 65 0
158 -155 65 0
-158 -155 -65 0
155 -159 0
158 -159 0
-155 -158 159 0
41 -160 0
17 -160 0
-41 -17 160 0
-159 157 0
-160 157 0
159 160 -157 0
18 42 -162 0
-18 42 162 0
18 -42 162 0
-18 -42 -162 0
162 157 -66 0
-162 157 66 0
162 -157 66 0
-162 -157 -66 0
157 -163 0
162 -163 0
-157 -162 163 0
42 -164 0
18 -164 0
-42 -18 164 0
-163 161 0
-164 161 0
163 164 -161 0
19 43 -166 0
-19 43 166 0
19 -43 166 0
-19 -43 -166 0
166 161 -67 0
-166 161 67 0
166 -161 67 0
-166 -161 -67 0
161 -167 0
166 -167 0
-161 -166 167 0
43 -168 0
19 -168 0
-43 -19 168 0
-167 165 0
-168 165 0
167 168 -165 0
20 44 -169 0
-20 44 169 0
20 -44 169 0
-20 -44 -169 0
169 165 -68 0
-169 165 68 0
169 -165 68 0
-169 -165 -68 0
165 -170 0
169 -170 0
-165 -169 170 0
44 -171 0
20 -171 0
-44 -20 171 0
-170 156 0
-171 156 0
170 171 -156 0
158 -172 0
162 -172 0
166 -172 0
169 -172 0
-158 -162 -166 -169 172 0
171 -173 0
-171 173 0
155 -174 0
172 -174 0
-155 -172 174 0
-174 175 0
-156 175 0
174 156 -175 0
21 45 -178 0
-21 45 178 0
21 -45 178 0
-21 -45 -178 0
178 175 -69 0
-178 175 69 0
178 -175 69 0
-178 -175 -69 0
175 -179 0
178 -179 0
-175 -178 179 0
45 -180 0
21 -180 0
-45 -21 180 0
-179 177 0
-180 177 0
179 180 -177 0
22 46 -182 0
-22 46 182 0
22 -46 182 0
-22 -46 -182 0
182 177 -70 0
-182 177 70 0
182 -177 70 0
-182 -177 -70 0
177 -183 0
182 -183 0
-177 -182 183 0
46 -184 0
22 -184 0
-46 -22 184 0
-183 181 0
-184 181 0
183 184 -181 0
23 47 -186 0
-23 47 186 0
23 -47 186 0
-23 -47 -186 0
186 181 -71 0
-186 181 71 0
186 -181 71 0
-186 -181 -71 0
181 -187 0
186 -187 0
-181 -186 187 0
47 -188 0
23 -188 0
-47 -23 188 0
-187 185 0
-188 185 0
187 188 -185 0
24 48 -189 0
-24 48 189 0
24 -48 189 0
-24 -48 -189 0
189 185 -72 0
-189 185 72 0
189 -185 72 0
-189 -185 -72 0
185 -190 0
189 -190 0
-185 -189 190 0
48 -191 0
24 -191 0
-48 -24 191 0
-190 176 0
-191 176 0
190 191 -176 0
178 -192 0
182 -192 0
186 -192 0
189 -192 0
-178 -182 -186 -189 192 0
191 -193 0
-191 193 0
175 -194 0
192 -194 0
-175 -192 194 0
-194 195 0
-176 195 0
194 176 -195 0
195 -73 0
-195 73 0
